p = 25;
s = 12;
b = 6;
c = 10;
t = 5;
g = 7;
graph = [| 0,1,0,1,0,0,0,1,0,1,0,0
	| 0,1,0,0,1,1,1,1,1,0,1,0
	| 1,1,0,0,0,0,0,0,1,1,0,0
	| 1,0,1,1,1,1,0,1,1,1,1,1
	| 1,1,1,0,0,0,1,0,1,1,1,0
	| 0,1,1,0,0,0,1,1,0,1,1,0
	| 0,0,1,1,1,0,1,0,0,1,0,1
	| 1,0,0,0,0,0,0,0,1,1,0,0
	| 1,0,1,0,0,1,0,1,0,1,1,0
	| 0,0,0,1,0,1,0,1,1,1,0,1
	| 0,0,1,1,1,1,0,0,0,1,0,0
	| 1,0,0,0,0,0,1,1,0,0,0,1
	| 0,0,1,0,1,0,0,1,1,0,1,0
	| 1,0,0,1,1,0,1,0,0,1,0,0
	| 1,0,0,0,1,1,0,1,0,0,1,0
	| 0,1,0,0,1,1,1,0,0,1,1,1
	| 0,1,0,1,0,0,0,1,1,1,0,0
	| 1,1,1,1,0,0,1,1,0,1,0,0
	| 0,0,1,0,1,0,0,1,1,1,0,0
	| 1,1,0,1,0,1,1,0,0,1,0,0
	| 0,0,1,0,0,0,1,0,1,1,0,1
	| 0,0,0,1,0,1,0,0,0,0,0,0
	| 0,0,0,1,0,1,1,0,1,1,1,1
	| 1,1,0,1,1,1,0,1,1,1,0,1
	| 0,0,0,1,0,0,0,0,0,0,1,1
	|];
groups = [
	{14,6,17},{19,18},{3,13},{1,22,25},{12,16},{2,24,10,9},{7,8}
]